(declare-const X String)
; /\x2ejnlp([\?\x5c\x2f]|$)/smiU
(assert (str.in_re X (re.++ (str.to_re "/.jnlp") (re.union (str.to_re "?") (str.to_re "\u{5c}") (str.to_re "/")) (str.to_re "/smiU\u{a}"))))
; [0-9A-Fa-f]{2}(\.?)[0-9A-Fa-f]{2}(\.?)[0-9A-Fa-f]{2}(\.?)[0-9A-Fa-f]{2}
(assert (str.in_re X (re.++ ((_ re.loop 2 2) (re.union (re.range "0" "9") (re.range "A" "F") (re.range "a" "f"))) (re.opt (str.to_re ".")) ((_ re.loop 2 2) (re.union (re.range "0" "9") (re.range "A" "F") (re.range "a" "f"))) (re.opt (str.to_re ".")) ((_ re.loop 2 2) (re.union (re.range "0" "9") (re.range "A" "F") (re.range "a" "f"))) (re.opt (str.to_re ".")) ((_ re.loop 2 2) (re.union (re.range "0" "9") (re.range "A" "F") (re.range "a" "f"))) (str.to_re "\u{a}"))))
; /filename=[^\n]*\x2eotf/i
(assert (not (str.in_re X (re.++ (str.to_re "/filename=") (re.* (re.comp (str.to_re "\u{a}"))) (str.to_re ".otf/i\u{a}")))))
; /\x2emim([\?\x5c\x2f]|$)/smiU
(assert (str.in_re X (re.++ (str.to_re "/.mim") (re.union (str.to_re "?") (str.to_re "\u{5c}") (str.to_re "/")) (str.to_re "/smiU\u{a}"))))
(check-sat)

(exit)
